30 5
87 93 97 98 66 63 31 26 32 37 68 26 37 65 81 69 28 76 35 97 71 35 35 39 10 63 43 93 53 47
105 80 94 108 82 77 47 53 36 37 43 39 32 65 73 70 44 90 37 110 68 48 39 52 24 59 16 98 70 72
97 87 84 82 66 58 52 25 35 52 51 21 28 54 69 72 48 74 60 105 84 42 40 39 26 52 28 105 62 61
96 91 91 94 78 52 37 35 25 37 46 17 22 66 67 51 27 100 40 113 84 34 21 36 25 74 26 108 61 51
84 97 83 91 87 70 51 38 20 37 48 36 38 69 67 60 54 79 52 105 87 48 43 28 16 76 13 110 67 49
